NAME : random96.760.tour
COMMENT : Length = 760
COMMENT : Found by LKH [Keld Helsgaun] Thu Sep 26 21:23:44 2024
TYPE : TOUR
DIMENSION : 96
TOUR_SECTION
1
15
33
40
69
60
36
96
82
65
14
95
76
11
63
48
28
2
52
26
78
85
80
18
23
81
10
86
12
92
42
87
49
16
75
57
61
46
6
74
29
43
59
22
30
34
53
7
32
64
83
25
68
24
84
91
38
19
89
72
55
44
51
13
94
3
58
5
79
20
54
62
93
8
45
39
70
9
88
17
73
71
31
56
90
4
67
21
50
41
37
66
77
27
35
47
-1
EOF
